
Gurobi 12.0.2 (win64) logging started Fri Jun  6 16:50:35 2025

Set parameter LogFile to value "C:\Ioana\_uni\honours\slp\algorithm\Main_files\results\others\neuro_new1\Task_356_Sample001_irr_gurobi.log"
Gurobi Optimizer version 12.0.2 build v12.0.2rc0 (win64 - Windows 11.0 (26100.2))

CPU model: Intel(R) Core(TM) Ultra 5 125H, instruction set [SSE2|AVX|AVX2]
Thread count: 14 physical cores, 18 logical processors, using up to 18 threads

Non-default parameters:
TimeLimit  2200

Optimize a model with 47226 rows, 34496 columns and 146683 nonzeros
Model fingerprint: 0x0f8514f1
Variable types: 17251 continuous, 17245 integer (17245 binary)
Coefficient statistics:
  Matrix range     [1e-04, 8e+04]
  Objective range  [1e-04, 3e+00]
  Bounds range     [1e+00, 1e+03]
  RHS range        [1e+00, 1e+00]
Found heuristic solution: objective 0.0425532
Presolve removed 47226 rows and 34496 columns
Presolve time: 0.20s
Presolve: All rows and columns removed

Explored 0 nodes (0 simplex iterations) in 0.21 seconds (0.27 work units)
Thread count was 1 (of 18 available processors)

Solution count 1: 0.0425532 

Optimal solution found (tolerance 1.00e-04)
Best objective 4.255319148936e-02, best bound 4.255319148936e-02, gap 0.0000%
